# LAMMPS script for RDF of 50/50 Fe-Al B2

# Initialization
clear
units metal
dimension 3
boundary p p p
atom_style atomic

# Simulation box
lattice fcc 5
region whole block 0 5 0 5 0 5
create_box 2 whole

# Atoms
lattice fcc 5
create_atoms 1 region whole
lattice fcc 5 origin 0.5 0.5 0.5
create_atoms 2 region whole


# Potential
pair_style 			eam/fs
pair_coeff			* * AlFe_mm.eam.fs Fe Al
neighbor			10 bin

# Equilibration
velocity all create 300 12345 mom yes rot yes dist gaussian
fix 1 all nvt temp 300 300 0.1

dump 1 all custom 100 dump_50_50_Fe_Al_B2.dump id type x y z
dump_modify 1 sort id
run 5000

# Simulation done
print "ALL DONE"
