
# Calculate Epot for individual lattice constants
# Al
# Parameter: ${latconst}

# ---------- Initialization --------------------- 
clear 
units 				metal 
dimension 			3 
boundary 			p p p 
atom_style 			atomic 

# ---------- Box/Atoms --------------------- 
lattice				fcc ${latconst} orient x 1 0 0 orient y 0 1 0 orient z 0 0 1  
region				whole block 0 1 0 1 0 1 units lattice
create_box			1 whole
create_atoms 		1 region whole

# ---------- Potential --------------------- 
pair_style 			eam/alloy
pair_coeff 			* * Al.eam.set Al
neighbor 			2.0 bin 
neigh_modify 		delay 10 check yes 
 
# ---------- Computes --------------------- 
compute 			pe_out all pe

# ---------- Minimization --------------------- 
		
fix 				1 all box/relax iso 0.0 vmax 0.001

thermo 				1
thermo_style 		custom step c_pe_out lx ly lz press pxx pyy pzz 

run					0

# ---------- Output --------------------- 
variable natoms equal "count(all)" 
variable teng equal "c_pe_out"
variable length equal "lx"

print "Total energy (eV) = ${teng};"
print "Number of atoms = ${natoms};"
print "Lattice constant (Angstoms) = ${length};"

print "All done!" 
